66767
66767
66767
66767
67300
67862
68705
69490
69490
69490
69490
69570
69693
69693
69924
69924
69924
69987
71097
71097
71097
71097
71097
71097
71097
71608
71608
71608
71608
71608
72035
72035
72035
72590
72671
72911
72911
72911
72973
72973
73172
73220
73220
73471
73471
73471
73575
73575
73851
73851
74163
74485
74485
74485
74741
74831
75015
75015
75015
75015
75015
75015
75485
75694
75722
75722
75864
75864
75864
75864
75864
75864
75864
75864
75864
75864
76466
76466
76466
76662
76662
76662
76662
76669
76682
76682
76682
76854
76949
76949
76989
77607
77607
77607
77607
77607
77607
77607
77718
77718
